Problem:    ferrovie
Rows:       74
Columns:    48
Non-zeros:  192
Status:     OPTIMAL
Objective:  z = 82100 (MAXimum)

   No.   Row name   St   Activity     Lower bound   Upper bound    Marginal
------ ------------ -- ------------- ------------- ------------- -------------
     1 controlloFlusso[1,A]
                    NS             0            -0             =           -15 
     2 controlloFlusso[1,B]
                    NS             0            -0             =         < eps
     3 controlloFlusso[1,C]
                    NS             0            -0             =         < eps
     4 controlloFlusso[2,A]
                    NS             0            -0             =           -30 
     5 controlloFlusso[2,B]
                    NS             0            -0             =         < eps
     6 controlloFlusso[2,C]
                    NS             0            -0             =           -15 
     7 controlloFlusso[3,A]
                    NS             0            -0             =           -80 
     8 controlloFlusso[3,B]
                    NS             0            -0             =           -65 
     9 controlloFlusso[3,C]
                    NS             0            -0             =           -65 
    10 controlloFlusso[4,A]
                    NS             0            -0             =           -80 
    11 controlloFlusso[4,B]
                    NS             0            -0             =           -50 
    12 controlloFlusso[4,C]
                    NS             0            -0             =           -65 
    13 controlloFlusso[5,A]
                    NS             0            -0             =           -80 
    14 controlloFlusso[5,B]
                    NS             0            -0             =           -50 
    15 controlloFlusso[5,C]
                    NS             0            -0             =           -65 
    16 controlloFlusso[6,A]
                    NS             0            -0             =           -80 
    17 controlloFlusso[6,B]
                    NS             0            -0             =           -50 
    18 controlloFlusso[6,C]
                    NS             0            -0             =           -65 
    19 controlloFlusso[7,A]
                    NS             0            -0             =           -80 
    20 controlloFlusso[7,B]
                    NS             0            -0             =           -50 
    21 controlloFlusso[7,C]
                    NS             0            -0             =           -65 
    22 controlloFlusso[8,A]
                    NS             0            -0             =           -80 
    23 controlloFlusso[8,B]
                    NS             0            -0             =           -50 
    24 controlloFlusso[8,C]
                    NS             0            -0             =           -65 
    25 limiteStazioneCaricoScarico[0,A]
                    B              0                        1000 
    26 limiteStazioneCaricoScarico[0,B]
                    B              0                        1000 
    27 limiteStazioneCaricoScarico[0,C]
                    B              0                        1000 
    28 limiteStazioneCaricoScarico[1,A]
                    NU           300                         300            15 
    29 limiteStazioneCaricoScarico[1,B]
                    B              0                        1800 
    30 limiteStazioneCaricoScarico[1,C]
                    B            460                        1400 
    31 limiteStazioneCaricoScarico[2,A]
                    NU           250                         250            30 
    32 limiteStazioneCaricoScarico[2,B]
                    B             34                         900 
    33 limiteStazioneCaricoScarico[2,C]
                    NU           100                         100            15 
    34 limiteStazioneCaricoScarico[3,A]
                    B              0                         900 
    35 limiteStazioneCaricoScarico[3,B]
                    B              0                         650 
    36 limiteStazioneCaricoScarico[3,C]
                    B            400                        1400 
    37 limiteStazioneCaricoScarico[4,A]
                    B            422                        2000 
    38 limiteStazioneCaricoScarico[4,B]
                    B             34                        1500 
    39 limiteStazioneCaricoScarico[4,C]
                    B            160                        2000 
    40 limiteStazioneCaricoScarico[5,A]
                    B            128                        1000 
    41 limiteStazioneCaricoScarico[5,B]
                    B              0                        1000 
    42 limiteStazioneCaricoScarico[5,C]
                    B              0                        1000 
    43 limiteStazioneCaricoScarico[6,A]
                    B            184                        1200 
    44 limiteStazioneCaricoScarico[6,B]
                    B              0                        1200 
    45 limiteStazioneCaricoScarico[6,C]
                    B            302                        1400 
    46 limiteStazioneCaricoScarico[7,A]
                    B            202                         600 
    47 limiteStazioneCaricoScarico[7,B]
                    B              0                         700 
    48 limiteStazioneCaricoScarico[7,C]
                    B             98                         950 
    49 limiteStazioneCaricoScarico[8,A]
                    B            164                         300 
    50 limiteStazioneCaricoScarico[8,B]
                    B             34                        1700 
    51 limiteStazioneCaricoScarico[8,C]
                    B            160                        1900 
    52 limiteStazioneCaricoScarico[9,A]
                    B            550                        1000 
    53 limiteStazioneCaricoScarico[9,B]
                    B             34                        1000 
    54 limiteStazioneCaricoScarico[9,C]
                    B            560                        1000 
    55 limiteStazionePartenza[A]
                    B            550                        1000 
    56 limiteStazionePartenza[B]
                    B             34                        1000 
    57 limiteStazionePartenza[C]
                    B            560                        1000 
    58 maxQuantitaTratta[0,1]
                    B            760                         800 
    59 maxQuantitaTratta[0,2]
                    B            384                         480 
    60 maxQuantitaTratta[1,3]
                    NU           400                         400            65 
    61 maxQuantitaTratta[1,4]
                    NU           360                         360            65 
    62 maxQuantitaTratta[2,4]
                    NU           256                         256            50 
    63 maxQuantitaTratta[2,5]
                    NU           128                         128            50 
    64 maxQuantitaTratta[3,6]
                    B            302                         320 
    65 maxQuantitaTratta[3,7]
                    B             98                         384 
    66 maxQuantitaTratta[4,6]
                    B            184                         240 
    67 maxQuantitaTratta[4,7]
                    NU           192                         192         < eps
    68 maxQuantitaTratta[4,8]
                    NU           240                         240         < eps
    69 maxQuantitaTratta[5,7]
                    B             10                         720 
    70 maxQuantitaTratta[5,8]
                    B            118                         400 
    71 maxQuantitaTratta[6,9]
                    NU           486                         486         < eps
    72 maxQuantitaTratta[7,9]
                    NU           300                         300         < eps
    73 maxQuantitaTratta[8,9]
                    B            358                         396 
    74 z            B          82100                             

   No. Column name  St   Activity     Lower bound   Upper bound    Marginal
------ ------------ -- ------------- ------------- ------------- -------------
     1 x[0,1,A]     B            300             0               
     2 x[1,3,A]     B              0             0               
     3 x[1,4,A]     B            300             0               
     4 x[0,1,B]     B              0             0               
     5 x[1,3,B]     B              0             0               
     6 x[1,4,B]     NL             0             0                         -15 
     7 x[0,1,C]     B            460             0               
     8 x[1,3,C]     B            400             0               
     9 x[1,4,C]     B             60             0               
    10 x[0,2,A]     B            250             0               
    11 x[2,4,A]     B            122             0               
    12 x[2,5,A]     B            128             0               
    13 x[0,2,B]     B             34             0               
    14 x[2,4,B]     B             34             0               
    15 x[2,5,B]     B              0             0               
    16 x[0,2,C]     B            100             0               
    17 x[2,4,C]     B            100             0               
    18 x[2,5,C]     B              0             0               
    19 x[3,6,A]     NL             0             0                       < eps
    20 x[3,7,A]     NL             0             0                       < eps
    21 x[3,6,B]     NL             0             0                         -15 
    22 x[3,7,B]     NL             0             0                         -15 
    23 x[3,6,C]     B            302             0               
    24 x[3,7,C]     B             98             0               
    25 x[4,6,A]     B            184             0               
    26 x[4,7,A]     B            192             0               
    27 x[4,8,A]     B             46             0               
    28 x[4,6,B]     NL             0             0                       < eps
    29 x[4,7,B]     NL             0             0                       < eps
    30 x[4,8,B]     B             34             0               
    31 x[4,6,C]     NL             0             0                       < eps
    32 x[4,7,C]     NL             0             0                       < eps
    33 x[4,8,C]     B            160             0               
    34 x[5,7,A]     B             10             0               
    35 x[5,8,A]     B            118             0               
    36 x[5,7,B]     NL             0             0                       < eps
    37 x[5,8,B]     NL             0             0                       < eps
    38 x[5,7,C]     NL             0             0                       < eps
    39 x[5,8,C]     NL             0             0                       < eps
    40 x[6,9,A]     B            184             0               
    41 x[6,9,B]     B              0             0               
    42 x[6,9,C]     B            302             0               
    43 x[7,9,A]     B            202             0               
    44 x[7,9,B]     B              0             0               
    45 x[7,9,C]     B             98             0               
    46 x[8,9,A]     B            164             0               
    47 x[8,9,B]     B             34             0               
    48 x[8,9,C]     B            160             0               

Karush-Kuhn-Tucker optimality conditions:

KKT.PE: max.abs.err = 0.00e+000 on row 0
        max.rel.err = 0.00e+000 on row 0
        High quality

KKT.PB: max.abs.err = 0.00e+000 on row 0
        max.rel.err = 0.00e+000 on row 0
        High quality

KKT.DE: max.abs.err = 0.00e+000 on column 0
        max.rel.err = 0.00e+000 on column 0
        High quality

KKT.DB: max.abs.err = 0.00e+000 on row 0
        max.rel.err = 0.00e+000 on row 0
        High quality

End of output
